Pt                                      
   1.00000000000000     
     8.4408350953221341   -0.0000000000000000    0.0000000000000000
     4.2204175476610670    7.3099776217042098    0.0000000000000000
     0.0000000000000000   -0.0000000000000000    9.7089616765869522
   Pt
    36
Direct
  0.0000000000000000  1.0000000000000000  0.0092044322586256
  0.3333333333333357  1.0000000000000000  0.0092044322586256
  0.6666666666666643  1.0000000000000000  0.0092044322586256
  0.0000000000000000  0.3333333333333357  0.0092044322586256
  0.3333333333333357  0.3333333333333357  0.0092044322586256
  0.6666666666666643  0.3333333333333357  0.0092044322586256
  0.0000000000000000  0.6666666666666643  0.0092044322586256
  0.3333333333333357  0.6666666666666643  0.0092044322586256
  0.6666666666666643  0.6666666666666643  0.0092044322586256
  0.1111111111111143  0.1111111111111143  0.2500956408907498
  0.4444444444444429  0.1111111111111143  0.2500956408907498
  0.7777777777777786  0.1111111111111143  0.2500956408907498
  0.1111111111111143  0.4444444444444429  0.2500956408907498
  0.4444444444444429  0.4444444444444429  0.2500956408907498
  0.7777777777777786  0.4444444444444429  0.2500956408907498
  0.1111111111111143  0.7777777777777786  0.2500956408907498
  0.4444444444444429  0.7777777777777786  0.2500956408907498
  0.7777777777777786  0.7777777777777786  0.2500956408907498
  0.8888888888888857  0.2222222222222214  0.4999043591092502
  0.2222222222222214  0.2222222222222214  0.4999043591092502
  0.5555555555555571  0.2222222222222214  0.4999043591092502
  0.8888888888888857  0.5555555555555571  0.4999043591092502
  0.2222222222222214  0.5555555555555571  0.4999043591092502
  0.5555555555555571  0.5555555555555571  0.4999043591092502
  0.8888888888888857  0.8888888888888857  0.4999043591092502
  0.2222222222222214  0.8888888888888857  0.4999043591092502
  0.5555555555555571  0.8888888888888857  0.4999043591092502
  1.0000000000000000  0.0000000000000000  0.7407955677413743
  0.3333333333333357  0.0000000000000000  0.7407955677413743
  0.6666666666666643  0.0000000000000000  0.7407955677413743
  1.0000000000000000  0.3333333333333357  0.7407955677413743
  0.3333333333333357  0.3333333333333357  0.7407955677413743
  0.6666666666666643  0.3333333333333357  0.7407955677413743
  1.0000000000000000  0.6666666666666643  0.7407955677413743
  0.3333333333333357  0.6666666666666643  0.7407955677413743
  0.6666666666666643  0.6666666666666643  0.7407955677413743
 
  0.00000000E+00  0.00000000E+00  0.00000000E+00
  0.00000000E+00  0.00000000E+00  0.00000000E+00
  0.00000000E+00  0.00000000E+00  0.00000000E+00
  0.00000000E+00  0.00000000E+00  0.00000000E+00
  0.00000000E+00  0.00000000E+00  0.00000000E+00
  0.00000000E+00  0.00000000E+00  0.00000000E+00
  0.00000000E+00  0.00000000E+00  0.00000000E+00
  0.00000000E+00  0.00000000E+00  0.00000000E+00
  0.00000000E+00  0.00000000E+00  0.00000000E+00
  0.00000000E+00  0.00000000E+00  0.00000000E+00
  0.00000000E+00  0.00000000E+00  0.00000000E+00
  0.00000000E+00  0.00000000E+00  0.00000000E+00
  0.00000000E+00  0.00000000E+00  0.00000000E+00
  0.00000000E+00  0.00000000E+00  0.00000000E+00
  0.00000000E+00  0.00000000E+00  0.00000000E+00
  0.00000000E+00  0.00000000E+00  0.00000000E+00
  0.00000000E+00  0.00000000E+00  0.00000000E+00
  0.00000000E+00  0.00000000E+00  0.00000000E+00
  0.00000000E+00  0.00000000E+00  0.00000000E+00
  0.00000000E+00  0.00000000E+00  0.00000000E+00
  0.00000000E+00  0.00000000E+00  0.00000000E+00
  0.00000000E+00  0.00000000E+00  0.00000000E+00
  0.00000000E+00  0.00000000E+00  0.00000000E+00
  0.00000000E+00  0.00000000E+00  0.00000000E+00
  0.00000000E+00  0.00000000E+00  0.00000000E+00
  0.00000000E+00  0.00000000E+00  0.00000000E+00
  0.00000000E+00  0.00000000E+00  0.00000000E+00
  0.00000000E+00  0.00000000E+00  0.00000000E+00
  0.00000000E+00  0.00000000E+00  0.00000000E+00
  0.00000000E+00  0.00000000E+00  0.00000000E+00
  0.00000000E+00  0.00000000E+00  0.00000000E+00
  0.00000000E+00  0.00000000E+00  0.00000000E+00
  0.00000000E+00  0.00000000E+00  0.00000000E+00
  0.00000000E+00  0.00000000E+00  0.00000000E+00
  0.00000000E+00  0.00000000E+00  0.00000000E+00
  0.00000000E+00  0.00000000E+00  0.00000000E+00
