ENCUT = 400.000000
POTIM = 0.200000
SIGMA = 0.100000
EDIFF = 1.00e-05
EDIFFG = -5.00e-02
ALGO = Fast
GGA = RP
PREC = Normal
IBRION = 2
ISIF = 3
ISMEAR = 0
ISPIN = 2
ISYM = 2
KPAR = 1
LMAXMIX = 4
LORBIT = 10
NELM = 100
NELMIN = 4
NSW = 200
NCORE = 8
LASPH = .TRUE.
LCHARG = .FALSE.
LWAVE = .FALSE.
LREAL = .FALSE.
