Pt
 1.0000000000000000
     8.4852813742385713    0.0000000000000000    0.0000000000000000
     4.2426406871192857    7.3484692283495336    0.0000000000000000
     0.0000000000000000    0.0000000000000000    9.2376043070340135
 Pt 
  36
Cartesian
  0.0000000000000000  0.0000000000000000  0.0000000000000000
  2.8284271247461903  0.0000000000000000  0.0000000000000000
  5.6568542494923806  0.0000000000000000  0.0000000000000000
  1.4142135623730951  2.4494897427831779  0.0000000000000000
  4.2426406871192857  2.4494897427831779  0.0000000000000000
  7.0710678118654755  2.4494897427831779  0.0000000000000000
  2.8284271247461903  4.8989794855663558  0.0000000000000000
  5.6568542494923806  4.8989794855663558  0.0000000000000000
  8.4852813742385713  4.8989794855663558  0.0000000000000000
  1.4142135623730951  0.8164965809277259  2.3094010767585034
  4.2426406871192848  0.8164965809277259  2.3094010767585034
  7.0710678118654755  0.8164965809277259  2.3094010767585034
  2.8284271247461903  3.2659863237109037  2.3094010767585034
  5.6568542494923806  3.2659863237109037  2.3094010767585034
  8.4852813742385713  3.2659863237109037  2.3094010767585034
  4.2426406871192857  5.7154760664940820  2.3094010767585034
  7.0710678118654755  5.7154760664940820  2.3094010767585034
  9.8994949366116671  5.7154760664940820  2.3094010767585034
  0.0000000000000000  1.6329931618554518  4.6188021535170067
  2.8284271247461907  1.6329931618554518  4.6188021535170067
  5.6568542494923806  1.6329931618554518  4.6188021535170067
  1.4142135623730949  4.0824829046386295  4.6188021535170067
  4.2426406871192857  4.0824829046386295  4.6188021535170067
  7.0710678118654755  4.0824829046386295  4.6188021535170067
  2.8284271247461903  6.5319726474218074  4.6188021535170067
  5.6568542494923806  6.5319726474218074  4.6188021535170067
  8.4852813742385713  6.5319726474218074  4.6188021535170067
  0.0000000000000000  0.0000000000000000  6.9282032302755105
  2.8284271247461903  0.0000000000000000  6.9282032302755105
  5.6568542494923806  0.0000000000000000  6.9282032302755105
  1.4142135623730951  2.4494897427831779  6.9282032302755105
  4.2426406871192857  2.4494897427831779  6.9282032302755105
  7.0710678118654755  2.4494897427831779  6.9282032302755105
  2.8284271247461903  4.8989794855663558  6.9282032302755105
  5.6568542494923806  4.8989794855663558  6.9282032302755105
  8.4852813742385713  4.8989794855663558  6.9282032302755105
